c nIsolatedPIs 0
c maxPI 32
p cnf 247 646
c gate 33 -10 -26 0
-10 -33 0
-26 -33 0
10 26 33 0
c gate 34 10 26 0
10 -34 0
26 -34 0
-10 -26 34 0
c gate 35 -33 -34 0
-33 -35 0
-34 -35 0
33 34 35 0
c gate 36 9 -25 0
9 -36 0
-25 -36 0
-9 25 36 0
c gate 37 8 -24 0
8 -37 0
-24 -37 0
-8 24 37 0
c gate 38 -36 -37 0
-36 -38 0
-37 -38 0
36 37 38 0
c gate 39 -35 -38 0
-35 -39 0
-38 -39 0
35 38 39 0
c gate 40 35 38 0
35 -40 0
38 -40 0
-35 -38 40 0
c gate 41 -39 -40 0
-39 -41 0
-40 -41 0
39 40 41 0
c gate 42 -9 25 0
-9 -42 0
25 -42 0
9 -25 42 0
c gate 43 -8 -24 0
-8 -43 0
-24 -43 0
8 24 43 0
c gate 44 8 24 0
8 -44 0
24 -44 0
-8 -24 44 0
c gate 45 -43 -44 0
-43 -45 0
-44 -45 0
43 44 45 0
c gate 46 -7 23 0
-7 -46 0
23 -46 0
7 -23 46 0
c gate 47 6 -22 0
6 -47 0
-22 -47 0
-6 22 47 0
c gate 48 -7 -23 0
-7 -48 0
-23 -48 0
7 23 48 0
c gate 49 7 23 0
7 -49 0
23 -49 0
-7 -23 49 0
c gate 50 -48 -49 0
-48 -50 0
-49 -50 0
48 49 50 0
c gate 51 -47 -50 0
-47 -51 0
-50 -51 0
47 50 51 0
c gate 52 -2 18 0
-2 -52 0
18 -52 0
2 -18 52 0
c gate 53 -1 17 0
-1 -53 0
17 -53 0
1 -17 53 0
c gate 54 -52 -53 0
-52 -54 0
-53 -54 0
52 53 54 0
c gate 55 2 -18 0
2 -55 0
-18 -55 0
-2 18 55 0
c gate 56 3 -19 0
3 -56 0
-19 -56 0
-3 19 56 0
c gate 57 -55 -56 0
-55 -57 0
-56 -57 0
55 56 57 0
c gate 58 -54 57 0
-54 -58 0
57 -58 0
54 -57 58 0
c gate 59 -4 20 0
-4 -59 0
20 -59 0
4 -20 59 0
c gate 60 -3 19 0
-3 -60 0
19 -60 0
3 -19 60 0
c gate 61 -59 -60 0
-59 -61 0
-60 -61 0
59 60 61 0
c gate 62 -58 61 0
-58 -62 0
61 -62 0
58 -61 62 0
c gate 63 5 -21 0
5 -63 0
-21 -63 0
-5 21 63 0
c gate 64 4 -20 0
4 -64 0
-20 -64 0
-4 20 64 0
c gate 65 -63 -64 0
-63 -65 0
-64 -65 0
63 64 65 0
c gate 66 -62 65 0
-62 -66 0
65 -66 0
62 -65 66 0
c gate 67 -6 -22 0
-6 -67 0
-22 -67 0
6 22 67 0
c gate 68 6 22 0
6 -68 0
22 -68 0
-6 -22 68 0
c gate 69 -67 -68 0
-67 -69 0
-68 -69 0
67 68 69 0
c gate 70 -5 21 0
-5 -70 0
21 -70 0
5 -21 70 0
c gate 71 -69 -70 0
-69 -71 0
-70 -71 0
69 70 71 0
c gate 72 -66 71 0
-66 -72 0
71 -72 0
66 -71 72 0
c gate 73 51 -72 0
51 -73 0
-72 -73 0
-51 72 73 0
c gate 74 -46 -73 0
-46 -74 0
-73 -74 0
46 73 74 0
c gate 75 -45 74 0
-45 -75 0
74 -75 0
45 -74 75 0
c gate 76 -37 -75 0
-37 -76 0
-75 -76 0
37 75 76 0
c gate 77 -42 -76 0
-42 -77 0
-76 -77 0
42 76 77 0
c gate 78 -36 -77 0
-36 -78 0
-77 -78 0
36 77 78 0
c gate 79 -35 -78 0
-35 -79 0
-78 -79 0
35 78 79 0
c gate 80 35 78 0
35 -80 0
78 -80 0
-35 -78 80 0
c gate 81 -79 -80 0
-79 -81 0
-80 -81 0
79 80 81 0
c gate 82 41 -81 0
41 -82 0
-81 -82 0
-41 81 82 0
c gate 83 -41 81 0
-41 -83 0
81 -83 0
41 -81 83 0
c gate 84 -82 -83 0
-82 -84 0
-83 -84 0
82 83 84 0
c gate 85 -5 -21 0
-5 -85 0
-21 -85 0
5 21 85 0
c gate 86 -4 -20 0
-4 -86 0
-20 -86 0
4 20 86 0
c gate 87 -85 -86 0
-85 -87 0
-86 -87 0
85 86 87 0
c gate 88 1 17 0
1 -88 0
17 -88 0
-1 -17 88 0
c gate 89 2 18 0
2 -89 0
18 -89 0
-2 -18 89 0
c gate 90 -88 -89 0
-88 -90 0
-89 -90 0
88 89 90 0
c gate 91 -56 -60 0
-56 -91 0
-60 -91 0
56 60 91 0
c gate 92 -2 -18 0
-2 -92 0
-18 -92 0
2 18 92 0
c gate 93 -91 -92 0
-91 -93 0
-92 -93 0
91 92 93 0
c gate 94 -90 93 0
-90 -94 0
93 -94 0
90 -93 94 0
c gate 95 3 19 0
3 -95 0
19 -95 0
-3 -19 95 0
c gate 96 4 20 0
4 -96 0
20 -96 0
-4 -20 96 0
c gate 97 -95 -96 0
-95 -97 0
-96 -97 0
95 96 97 0
c gate 98 -94 97 0
-94 -98 0
97 -98 0
94 -97 98 0
c gate 99 87 -98 0
87 -99 0
-98 -99 0
-87 98 99 0
c gate 100 5 21 0
5 -100 0
21 -100 0
-5 -21 100 0
c gate 101 69 -100 0
69 -101 0
-100 -101 0
-69 100 101 0
c gate 102 -99 101 0
-99 -102 0
101 -102 0
99 -101 102 0
c gate 103 -67 -102 0
-67 -103 0
-102 -103 0
67 102 103 0
c gate 104 50 -103 0
50 -104 0
-103 -104 0
-50 103 104 0
c gate 105 45 104 0
45 -105 0
104 -105 0
-45 -104 105 0
c gate 106 -102 -104 0
-102 -106 0
-104 -106 0
102 104 106 0
c gate 107 88 89 0
88 -107 0
89 -107 0
-88 -89 107 0
c gate 108 106 107 0
106 -108 0
107 -108 0
-106 -107 108 0
c gate 109 -105 -108 0
-105 -109 0
-108 -109 0
105 108 109 0
c gate 110 -11 -27 0
-11 -110 0
-27 -110 0
11 27 110 0
c gate 111 12 28 0
12 -111 0
28 -111 0
-12 -28 111 0
c gate 112 -12 -28 0
-12 -112 0
-28 -112 0
12 28 112 0
c gate 113 -111 -112 0
-111 -113 0
-112 -113 0
111 112 113 0
c gate 114 -110 113 0
-110 -114 0
113 -114 0
110 -113 114 0
c gate 115 9 25 0
9 -115 0
25 -115 0
-9 -25 115 0
c gate 116 -44 -115 0
-44 -116 0
-115 -116 0
44 115 116 0
c gate 117 -43 -48 0
-43 -117 0
-48 -117 0
43 48 117 0
c gate 118 -104 117 0
-104 -118 0
117 -118 0
104 -117 118 0
c gate 119 116 -118 0
116 -119 0
-118 -119 0
-116 118 119 0
c gate 120 -9 -25 0
-9 -120 0
-25 -120 0
9 25 120 0
c gate 121 -33 -120 0
-33 -121 0
-120 -121 0
33 120 121 0
c gate 122 -119 121 0
-119 -122 0
121 -122 0
119 -121 122 0
c gate 123 11 27 0
11 -123 0
27 -123 0
-11 -27 123 0
c gate 124 -34 -123 0
-34 -124 0
-123 -124 0
34 123 124 0
c gate 125 -122 124 0
-122 -125 0
124 -125 0
122 -124 125 0
c gate 126 114 -125 0
114 -126 0
-125 -126 0
-114 125 126 0
c gate 127 -13 -29 0
-13 -127 0
-29 -127 0
13 29 127 0
c gate 128 13 29 0
13 -128 0
29 -128 0
-13 -29 128 0
c gate 129 -127 -128 0
-127 -129 0
-128 -129 0
127 128 129 0
c gate 130 -111 -126 0
-111 -130 0
-126 -130 0
111 126 130 0
c gate 131 -129 -130 0
-129 -131 0
-130 -131 0
129 130 131 0
c gate 132 -126 -131 0
-126 -132 0
-131 -132 0
126 131 132 0
c gate 133 109 132 0
109 -133 0
132 -133 0
-109 -132 133 0
c gate 134 116 -117 0
116 -134 0
-117 -134 0
-116 117 134 0
c gate 135 114 121 0
114 -135 0
121 -135 0
-114 -121 135 0
c gate 136 -134 135 0
-134 -136 0
135 -136 0
134 -135 136 0
c gate 137 125 136 0
125 -137 0
136 -137 0
-125 -136 137 0
c gate 138 105 -137 0
105 -138 0
-137 -138 0
-105 137 138 0
c gate 139 132 -138 0
132 -139 0
-138 -139 0
-132 138 139 0
c gate 140 16 32 0
16 -140 0
32 -140 0
-16 -32 140 0
c gate 141 -16 -32 0
-16 -141 0
-32 -141 0
16 32 141 0
c gate 142 -140 -141 0
-140 -142 0
-141 -142 0
140 141 142 0
c gate 143 -15 -31 0
-15 -143 0
-31 -143 0
15 31 143 0
c gate 144 15 31 0
15 -144 0
31 -144 0
-15 -31 144 0
c gate 145 -14 -30 0
-14 -145 0
-30 -145 0
14 30 145 0
c gate 146 14 30 0
14 -146 0
30 -146 0
-14 -30 146 0
c gate 147 -145 -146 0
-145 -147 0
-146 -147 0
145 146 147 0
c gate 148 -127 -130 0
-127 -148 0
-130 -148 0
127 130 148 0
c gate 149 -128 -148 0
-128 -149 0
-148 -149 0
128 148 149 0
c gate 150 147 149 0
147 -150 0
149 -150 0
-147 -149 150 0
c gate 151 -145 -150 0
-145 -151 0
-150 -151 0
145 150 151 0
c gate 152 -144 -151 0
-144 -152 0
-151 -152 0
144 151 152 0
c gate 153 -143 -152 0
-143 -153 0
-152 -153 0
143 152 153 0
c gate 154 142 -153 0
142 -154 0
-153 -154 0
-142 153 154 0
c gate 155 -142 153 0
-142 -155 0
153 -155 0
142 -153 155 0
c gate 156 -154 -155 0
-154 -156 0
-155 -156 0
154 155 156 0
c gate 157 -111 -128 0
-111 -157 0
-128 -157 0
111 128 157 0
c gate 158 147 157 0
147 -158 0
157 -158 0
-147 -157 158 0
c gate 159 -147 -157 0
-147 -159 0
-157 -159 0
147 157 159 0
c gate 160 -158 -159 0
-158 -160 0
-159 -160 0
158 159 160 0
c gate 161 -147 -149 0
-147 -161 0
-149 -161 0
147 149 161 0
c gate 162 -150 -161 0
-150 -162 0
-161 -162 0
150 161 162 0
c gate 163 160 -162 0
160 -163 0
-162 -163 0
-160 162 163 0
c gate 164 -131 -163 0
-131 -164 0
-163 -164 0
131 163 164 0
c gate 165 -160 162 0
-160 -165 0
162 -165 0
160 -162 165 0
c gate 166 -163 -165 0
-163 -166 0
-165 -166 0
163 165 166 0
c gate 167 -161 -166 0
-161 -167 0
-166 -167 0
161 166 167 0
c gate 168 -164 -167 0
-164 -168 0
-167 -168 0
164 167 168 0
c gate 169 151 -158 0
151 -169 0
-158 -169 0
-151 158 169 0
c gate 170 -143 -144 0
-143 -170 0
-144 -170 0
143 144 170 0
c gate 171 -151 -170 0
-151 -171 0
-170 -171 0
151 170 171 0
c gate 172 -145 -158 0
-145 -172 0
-158 -172 0
145 158 172 0
c gate 173 170 -172 0
170 -173 0
-172 -173 0
-170 172 173 0
c gate 174 -171 -173 0
-171 -174 0
-173 -174 0
171 173 174 0
c gate 175 -169 174 0
-169 -175 0
174 -175 0
169 -174 175 0
c gate 176 -168 -175 0
-168 -176 0
-175 -176 0
168 175 176 0
c gate 177 -156 -176 0
-156 -177 0
-176 -177 0
156 176 177 0
c gate 178 156 176 0
156 -178 0
176 -178 0
-156 -176 178 0
c gate 179 -143 -173 0
-143 -179 0
-173 -179 0
143 173 179 0
c gate 180 142 -179 0
142 -180 0
-179 -180 0
-142 179 180 0
c gate 181 -142 179 0
-142 -181 0
179 -181 0
142 -179 181 0
c gate 182 -180 -181 0
-180 -182 0
-181 -182 0
180 181 182 0
c gate 183 -178 182 0
-178 -183 0
182 -183 0
178 -182 183 0
c gate 184 -177 -183 0
-177 -184 0
-183 -184 0
177 183 184 0
c gate 185 -139 184 0
-139 -185 0
184 -185 0
139 -184 185 0
c gate 186 -133 -185 0
-133 -186 0
-185 -186 0
133 185 186 0
c gate 187 153 180 0
153 -187 0
180 -187 0
-153 -180 187 0
c gate 188 -72 -187 0
-72 -188 0
-187 -188 0
72 187 188 0
c gate 189 186 188 0
186 -189 0
188 -189 0
-186 -188 189 0
c gate 190 50 72 0
50 -190 0
72 -190 0
-50 -72 190 0
c gate 191 -72 -140 0
-72 -191 0
-140 -191 0
72 140 191 0
c gate 192 -180 191 0
-180 -192 0
191 -192 0
180 -191 192 0
c gate 193 154 192 0
154 -193 0
192 -193 0
-154 -192 193 0
c gate 194 -190 -193 0
-190 -194 0
-193 -194 0
190 193 194 0
c gate 195 -189 194 0
-189 -195 0
194 -195 0
189 -194 195 0
c gate 196 45 51 0
45 -196 0
51 -196 0
-45 -51 196 0
c gate 197 74 196 0
74 -197 0
196 -197 0
-74 -196 197 0
c gate 198 195 -197 0
195 -198 0
-197 -198 0
-195 197 198 0
c gate 199 -75 -198 0
-75 -199 0
-198 -199 0
75 198 199 0
c gate 200 -36 -42 0
-36 -200 0
-42 -200 0
36 42 200 0
c gate 201 75 -200 0
75 -201 0
-200 -201 0
-75 200 201 0
c gate 202 -199 -201 0
-199 -202 0
-201 -202 0
199 201 202 0
c gate 203 10 -26 0
10 -203 0
-26 -203 0
-10 26 203 0
c gate 204 -79 -203 0
-79 -204 0
-203 -204 0
79 203 204 0
c gate 205 -110 -123 0
-110 -205 0
-123 -205 0
110 123 205 0
c gate 206 204 -205 0
204 -206 0
-205 -206 0
-204 205 206 0
c gate 207 -142 -147 0
-142 -207 0
-147 -207 0
142 147 207 0
c gate 208 -113 -170 0
-113 -208 0
-170 -208 0
113 170 208 0
c gate 209 -129 208 0
-129 -209 0
208 -209 0
129 -208 209 0
c gate 210 207 209 0
207 -210 0
209 -210 0
-207 -209 210 0
c gate 211 206 210 0
206 -211 0
210 -211 0
-206 -210 211 0
c gate 212 -204 205 0
-204 -212 0
205 -212 0
204 -205 212 0
c gate 213 -206 -212 0
-206 -213 0
-212 -213 0
206 212 213 0
c gate 214 -39 -203 0
-39 -214 0
-203 -214 0
39 203 214 0
c gate 215 205 -214 0
205 -215 0
-214 -215 0
-205 214 215 0
c gate 216 -213 -215 0
-213 -216 0
-215 -216 0
213 215 216 0
c gate 217 -83 202 0
-83 -217 0
202 -217 0
83 -202 217 0
c gate 218 -82 -217 0
-82 -218 0
-217 -218 0
82 217 218 0
c gate 219 -216 -218 0
-216 -219 0
-218 -219 0
216 218 219 0
c gate 220 204 215 0
204 -220 0
215 -220 0
-204 -215 220 0
c gate 221 -206 -220 0
-206 -221 0
-220 -221 0
206 220 221 0
c gate 222 -219 221 0
-219 -222 0
221 -222 0
219 -221 222 0
c gate 223 -211 -222 0
-211 -223 0
-222 -223 0
211 222 223 0
c gate 224 -202 223 0
-202 -224 0
223 -224 0
202 -223 224 0
c gate 225 -75 -197 0
-75 -225 0
-197 -225 0
75 197 225 0
c gate 226 -195 223 0
-195 -226 0
223 -226 0
195 -223 226 0
c gate 227 88 92 0
88 -227 0
92 -227 0
-88 -92 227 0
c gate 228 106 -227 0
106 -228 0
-227 -228 0
-106 227 228 0
c gate 229 -137 -228 0
-137 -229 0
-228 -229 0
137 228 229 0
c gate 230 132 -229 0
132 -230 0
-229 -230 0
-132 229 230 0
c gate 231 184 -230 0
184 -231 0
-230 -231 0
-184 230 231 0
c gate 232 188 -231 0
188 -232 0
-231 -232 0
-188 231 232 0
c gate 233 194 -232 0
194 -233 0
-232 -233 0
-194 232 233 0
c gate 234 -223 233 0
-223 -234 0
233 -234 0
223 -233 234 0
c gate 235 -226 -234 0
-226 -235 0
-234 -235 0
226 234 235 0
c gate 236 225 235 0
225 -236 0
235 -236 0
-225 -235 236 0
c gate 237 -197 -201 0
-197 -237 0
-201 -237 0
197 201 237 0
c gate 238 -223 237 0
-223 -238 0
237 -238 0
223 -237 238 0
c gate 239 -236 238 0
-236 -239 0
238 -239 0
236 -238 239 0
c gate 240 -224 -239 0
-224 -240 0
-239 -240 0
224 239 240 0
c gate 241 84 240 0
84 -241 0
240 -241 0
-84 -240 241 0
c gate 242 -83 -223 0
-83 -242 0
-223 -242 0
83 223 242 0
c gate 243 -241 242 0
-241 -243 0
242 -243 0
241 -242 243 0
c gate 244 218 223 0
218 -244 0
223 -244 0
-218 -223 244 0
c gate 245 -216 -220 0
-216 -245 0
-220 -245 0
216 220 245 0
c gate 246 -244 -245 0
-244 -246 0
-245 -246 0
244 245 246 0
c gate 247 -243 246 0
-243 -247 0
246 -247 0
243 -246 247 0
c PO
247 0
